p edge 50 121
e 0 2
e 0 15
e 0 27
e 0 33
e 0 44
e 1 6
e 1 11
e 1 12
e 1 27
e 1 32
e 1 48
e 2 15
e 2 19
e 2 25
e 3 12
e 3 22
e 3 24
e 3 40
e 4 7
e 4 8
e 4 22
e 4 30
e 4 43
e 4 46
e 4 48
e 5 28
e 5 43
e 6 15
e 6 18
e 6 20
e 6 25
e 6 38
e 7 22
e 7 45
e 8 14
e 8 18
e 8 24
e 8 30
e 8 31
e 8 33
e 8 38
e 8 40
e 8 41
e 8 45
e 9 12
e 9 16
e 9 28
e 9 36
e 10 23
e 10 25
e 10 28
e 10 30
e 10 32
e 10 38
e 10 40
e 11 15
e 11 22
e 11 41
e 11 48
e 12 19
e 12 21
e 12 24
e 12 33
e 14 21
e 14 25
e 14 49
e 15 23
e 15 27
e 15 34
e 15 36
e 15 41
e 17 25
e 18 20
e 18 27
e 18 28
e 19 36
e 19 42
e 19 47
e 19 48
e 20 37
e 21 25
e 21 43
e 22 27
e 23 30
e 24 36
e 24 45
e 24 48
e 25 31
e 25 33
e 26 34
e 26 37
e 26 44
e 27 41
e 27 44
e 28 44
e 29 41
e 30 33
e 30 42
e 30 43
e 31 42
e 32 42
e 32 43
e 33 42
e 33 49
e 34 41
e 34 46
e 35 40
e 35 42
e 35 44
e 35 48
e 36 48
e 36 49
e 37 49
e 38 43
e 43 46
e 44 45
e 44 46
e 44 47
e 44 49
e 45 48
e 47 49
